p edge 95 440
e 1 5
e 1 12
e 1 16
e 1 17
e 1 45
e 1 50
e 1 76
e 1 90
e 2 3
e 2 17
e 2 33
e 2 55
e 2 56
e 2 71
e 2 76
e 2 78
e 2 80
e 2 81
e 2 91
e 3 4
e 3 6
e 3 29
e 3 34
e 3 42
e 3 60
e 3 74
e 3 91
e 4 7
e 4 10
e 4 15
e 4 21
e 4 36
e 4 59
e 4 65
e 4 70
e 4 72
e 4 78
e 4 95
e 5 28
e 5 29
e 5 37
e 5 67
e 5 70
e 5 87
e 6 21
e 6 28
e 6 36
e 6 54
e 6 55
e 6 56
e 6 57
e 6 63
e 6 70
e 6 77
e 6 84
e 7 9
e 7 35
e 7 37
e 7 44
e 7 54
e 7 57
e 7 60
e 7 64
e 7 72
e 7 74
e 7 85
e 8 13
e 8 21
e 8 24
e 8 27
e 8 29
e 8 30
e 8 36
e 8 46
e 8 79
e 8 88
e 8 93
e 9 13
e 9 16
e 9 18
e 9 24
e 9 31
e 9 34
e 9 71
e 10 17
e 10 23
e 10 25
e 10 27
e 10 28
e 10 37
e 10 39
e 10 44
e 10 48
e 10 53
e 10 61
e 10 90
e 10 91
e 10 93
e 10 95
e 11 40
e 11 60
e 11 79
e 11 85
e 11 87
e 12 34
e 12 37
e 12 61
e 12 67
e 12 82
e 13 20
e 13 27
e 13 33
e 13 54
e 13 57
e 13 71
e 13 79
e 13 82
e 14 20
e 14 28
e 14 32
e 14 35
e 14 41
e 14 68
e 14 69
e 14 70
e 14 73
e 14 74
e 14 89
e 15 18
e 15 22
e 15 40
e 15 51
e 15 81
e 15 91
e 15 94
e 16 17
e 16 19
e 16 21
e 16 32
e 16 34
e 16 59
e 16 63
e 16 65
e 16 84
e 16 87
e 17 19
e 17 37
e 17 53
e 17 54
e 17 67
e 17 69
e 17 85
e 18 22
e 18 35
e 18 61
e 18 75
e 18 90
e 18 95
e 19 22
e 19 26
e 19 29
e 19 32
e 19 34
e 19 65
e 19 67
e 19 73
e 19 79
e 19 80
e 19 81
e 19 87
e 19 91
e 20 74
e 21 25
e 21 63
e 21 65
e 21 75
e 21 76
e 21 82
e 21 87
e 22 30
e 22 39
e 22 41
e 22 57
e 22 61
e 22 62
e 23 42
e 23 45
e 23 75
e 23 87
e 23 94
e 24 27
e 24 40
e 24 83
e 24 88
e 24 92
e 25 28
e 25 30
e 25 45
e 25 58
e 25 64
e 25 68
e 25 75
e 25 81
e 25 84
e 25 93
e 26 32
e 26 34
e 26 44
e 26 55
e 26 62
e 26 75
e 26 79
e 26 85
e 26 89
e 27 40
e 27 48
e 27 82
e 27 86
e 27 89
e 27 93
e 28 33
e 28 34
e 28 37
e 28 38
e 28 52
e 28 63
e 28 87
e 28 94
e 29 63
e 30 33
e 30 54
e 30 58
e 30 74
e 30 90
e 31 34
e 31 42
e 31 44
e 31 74
e 31 79
e 31 86
e 31 91
e 32 40
e 33 42
e 33 50
e 33 61
e 33 67
e 33 74
e 33 84
e 33 86
e 33 87
e 34 56
e 34 92
e 35 51
e 35 69
e 35 72
e 35 83
e 35 90
e 36 41
e 36 57
e 36 59
e 36 73
e 36 74
e 36 91
e 37 41
e 37 46
e 37 76
e 37 81
e 38 43
e 38 50
e 38 79
e 38 82
e 38 85
e 39 58
e 39 68
e 39 71
e 39 72
e 39 77
e 39 80
e 39 88
e 40 47
e 40 53
e 40 56
e 40 91
e 40 95
e 41 44
e 41 47
e 41 49
e 41 52
e 41 60
e 41 79
e 42 45
e 42 49
e 42 54
e 42 55
e 42 60
e 42 72
e 42 80
e 42 93
e 43 45
e 43 58
e 43 86
e 43 93
e 43 95
e 44 52
e 44 57
e 44 58
e 44 59
e 44 62
e 44 77
e 44 81
e 44 89
e 44 92
e 45 51
e 45 65
e 45 69
e 45 72
e 45 89
e 45 91
e 45 93
e 46 53
e 46 55
e 46 63
e 46 65
e 46 81
e 46 86
e 47 52
e 47 61
e 47 93
e 48 51
e 48 68
e 48 70
e 48 74
e 48 76
e 48 77
e 48 91
e 48 93
e 48 94
e 49 54
e 49 58
e 49 67
e 49 75
e 49 89
e 49 94
e 50 69
e 50 79
e 50 87
e 51 52
e 51 59
e 51 60
e 51 72
e 51 78
e 51 89
e 52 70
e 52 81
e 52 84
e 52 92
e 53 60
e 53 69
e 54 69
e 54 85
e 54 92
e 55 60
e 55 61
e 55 64
e 56 63
e 56 64
e 56 72
e 56 74
e 56 78
e 56 92
e 57 69
e 57 73
e 57 74
e 57 76
e 57 81
e 57 89
e 57 93
e 58 68
e 58 69
e 58 77
e 58 84
e 60 83
e 60 85
e 61 77
e 61 82
e 61 90
e 62 63
e 62 75
e 62 83
e 63 87
e 64 66
e 64 77
e 65 71
e 65 74
e 65 84
e 66 87
e 66 92
e 67 82
e 67 84
e 68 75
e 68 91
e 69 70
e 69 87
e 71 73
e 71 75
e 72 75
e 72 82
e 73 78
e 73 84
e 73 88
e 73 91
e 74 92
e 75 77
e 75 82
e 75 95
e 76 80
e 76 84
e 77 78
e 77 80
e 77 81
e 78 81
e 79 80
e 79 92
e 79 93
e 80 87
e 80 93
e 81 82
e 81 83
e 81 92
e 82 95
e 83 85
e 83 92
e 84 85
e 84 87
e 84 95
e 85 89
e 86 94
e 87 88
e 89 91
e 93 95
